\* max_e_h *\
Maximize
max_sum_rows_columns: sumCol_1 + sumCol_10 + sumCol_100 + sumCol_107
 + sumCol_11 + sumCol_116 + sumCol_118 + sumCol_12 + sumCol_121 + sumCol_123
 + sumCol_124 + sumCol_128 + sumCol_13 + sumCol_131 + sumCol_133 + sumCol_136
 + sumCol_139 + sumCol_14 + sumCol_141 + sumCol_144 + sumCol_146 + sumCol_148
 + sumCol_149 + sumCol_15 + sumCol_155 + sumCol_158 + sumCol_16 + sumCol_160
 + sumCol_163 + sumCol_164 + sumCol_165 + sumCol_166 + sumCol_168 + sumCol_173
 + sumCol_178 + sumCol_18 + sumCol_180 + sumCol_181 + sumCol_183 + sumCol_184
 + sumCol_185 + sumCol_187 + sumCol_188 + sumCol_19 + sumCol_190 + sumCol_194
 + sumCol_196 + sumCol_199 + sumCol_203 + sumCol_205 + sumCol_208 + sumCol_21
 + sumCol_216 + sumCol_219 + sumCol_221 + sumCol_223 + sumCol_225 + sumCol_23
 + sumCol_239 + sumCol_24 + sumCol_241 + sumCol_245 + sumCol_246 + sumCol_25
 + sumCol_253 + sumCol_254 + sumCol_256 + sumCol_257 + sumCol_258 + sumCol_26
 + sumCol_260 + sumCol_261 + sumCol_262 + sumCol_265 + sumCol_267 + sumCol_27
 + sumCol_271 + sumCol_274 + sumCol_275 + sumCol_276 + sumCol_278 + sumCol_281
 + sumCol_282 + sumCol_285 + sumCol_287 + sumCol_29 + sumCol_291 + sumCol_292
 + sumCol_297 + sumCol_298 + sumCol_30 + sumCol_302 + sumCol_309 + sumCol_31
 + sumCol_310 + sumCol_311 + sumCol_312 + sumCol_313 + sumCol_314 + sumCol_315
 + sumCol_316 + sumCol_32 + sumCol_324 + sumCol_326 + sumCol_329 + sumCol_330
 + sumCol_331 + sumCol_333 + sumCol_334 + sumCol_34 + sumCol_342 + sumCol_343
 + sumCol_345 + sumCol_346 + sumCol_347 + sumCol_351 + sumCol_353 + sumCol_36
 + sumCol_364 + sumCol_37 + sumCol_377 + sumCol_38 + sumCol_387 + sumCol_388
 + sumCol_389 + sumCol_39 + sumCol_390 + sumCol_397 + sumCol_398 + sumCol_399
 + sumCol_40 + sumCol_405 + sumCol_408 + sumCol_411 + sumCol_417 + sumCol_418
 + sumCol_420 + sumCol_425 + sumCol_426 + sumCol_431 + sumCol_437 + sumCol_441
 + sumCol_442 + sumCol_443 + sumCol_444 + sumCol_445 + sumCol_446 + sumCol_447
 + sumCol_448 + sumCol_449 + sumCol_450 + sumCol_452 + sumCol_453 + sumCol_454
 + sumCol_455 + sumCol_456 + sumCol_458 + sumCol_460 + sumCol_461 + sumCol_462
 + sumCol_463 + sumCol_464 + sumCol_465 + sumCol_5 + sumCol_50 + sumCol_51
 + sumCol_53 + sumCol_55 + sumCol_56 + sumCol_59 + sumCol_62 + sumCol_63
 + sumCol_66 + sumCol_68 + sumCol_70 + sumCol_74 + sumCol_79 + sumCol_80
 + sumCol_82 + sumCol_9 + sumCol_91 + sumCol_93 + sumCol_95 + sumRow_44
Subject To
col_slack_1: - 186 col_1 - row_44 + sumCol_1 >= -186
col_slack_10: - 186 col_10 - row_44 + sumCol_10 >= -186
col_slack_100: - 186 col_100 - row_44 + sumCol_100 >= -186
col_slack_107: - 186 col_107 - row_44 + sumCol_107 >= -186
col_slack_11: - 186 col_11 - row_44 + sumCol_11 >= -186
col_slack_116: - 186 col_116 - row_44 + sumCol_116 >= -186
col_slack_118: - 186 col_118 - row_44 + sumCol_118 >= -186
col_slack_12: - 186 col_12 - row_44 + sumCol_12 >= -186
col_slack_121: - 186 col_121 - row_44 + sumCol_121 >= -186
col_slack_123: - 186 col_123 - row_44 + sumCol_123 >= -186
col_slack_124: - 186 col_124 - row_44 + sumCol_124 >= -186
col_slack_128: - 186 col_128 - row_44 + sumCol_128 >= -186
col_slack_13: - 186 col_13 - row_44 + sumCol_13 >= -186
col_slack_131: - 186 col_131 - row_44 + sumCol_131 >= -186
col_slack_133: - 186 col_133 - row_44 + sumCol_133 >= -186
col_slack_136: - 186 col_136 - row_44 + sumCol_136 >= -186
col_slack_139: - 186 col_139 - row_44 + sumCol_139 >= -186
col_slack_14: - 186 col_14 - row_44 + sumCol_14 >= -186
col_slack_141: - 186 col_141 - row_44 + sumCol_141 >= -186
col_slack_144: - 186 col_144 - row_44 + sumCol_144 >= -186
col_slack_146: - 186 col_146 - row_44 + sumCol_146 >= -186
col_slack_148: - 186 col_148 - row_44 + sumCol_148 >= -186
col_slack_149: - 186 col_149 - row_44 + sumCol_149 >= -186
col_slack_15: - 186 col_15 - row_44 + sumCol_15 >= -186
col_slack_155: - 186 col_155 - row_44 + sumCol_155 >= -186
col_slack_158: - 186 col_158 - row_44 + sumCol_158 >= -186
col_slack_16: - 186 col_16 - row_44 + sumCol_16 >= -186
col_slack_160: - 186 col_160 - row_44 + sumCol_160 >= -186
col_slack_163: - 186 col_163 - row_44 + sumCol_163 >= -186
col_slack_164: - 186 col_164 - row_44 + sumCol_164 >= -186
col_slack_165: - 186 col_165 - row_44 + sumCol_165 >= -186
col_slack_166: - 186 col_166 - row_44 + sumCol_166 >= -186
col_slack_168: - 186 col_168 - row_44 + sumCol_168 >= -186
col_slack_173: - 186 col_173 - row_44 + sumCol_173 >= -186
col_slack_178: - 186 col_178 - row_44 + sumCol_178 >= -186
col_slack_18: - 186 col_18 - row_44 + sumCol_18 >= -186
col_slack_180: - 186 col_180 - row_44 + sumCol_180 >= -186
col_slack_181: - 186 col_181 - row_44 + sumCol_181 >= -186
col_slack_183: - 186 col_183 - row_44 + sumCol_183 >= -186
col_slack_184: - 186 col_184 - row_44 + sumCol_184 >= -186
col_slack_185: - 186 col_185 - row_44 + sumCol_185 >= -186
col_slack_187: - 186 col_187 - row_44 + sumCol_187 >= -186
col_slack_188: - 186 col_188 - row_44 + sumCol_188 >= -186
col_slack_19: - 186 col_19 - row_44 + sumCol_19 >= -186
col_slack_190: - 186 col_190 - row_44 + sumCol_190 >= -186
col_slack_194: - 186 col_194 - row_44 + sumCol_194 >= -186
col_slack_196: - 186 col_196 - row_44 + sumCol_196 >= -186
col_slack_199: - 186 col_199 - row_44 + sumCol_199 >= -186
col_slack_203: - 186 col_203 - row_44 + sumCol_203 >= -186
col_slack_205: - 186 col_205 - row_44 + sumCol_205 >= -186
col_slack_208: - 186 col_208 - row_44 + sumCol_208 >= -186
col_slack_21: - 186 col_21 - row_44 + sumCol_21 >= -186
col_slack_216: - 186 col_216 - row_44 + sumCol_216 >= -186
col_slack_219: - 186 col_219 - row_44 + sumCol_219 >= -186
col_slack_221: - 186 col_221 - row_44 + sumCol_221 >= -186
col_slack_223: - 186 col_223 - row_44 + sumCol_223 >= -186
col_slack_225: - 186 col_225 - row_44 + sumCol_225 >= -186
col_slack_23: - 186 col_23 - row_44 + sumCol_23 >= -186
col_slack_239: - 186 col_239 - row_44 + sumCol_239 >= -186
col_slack_24: - 186 col_24 - row_44 + sumCol_24 >= -186
col_slack_241: - 186 col_241 - row_44 + sumCol_241 >= -186
col_slack_245: - 186 col_245 - row_44 + sumCol_245 >= -186
col_slack_246: - 186 col_246 - row_44 + sumCol_246 >= -186
col_slack_25: - 186 col_25 - row_44 + sumCol_25 >= -186
col_slack_253: - 186 col_253 - row_44 + sumCol_253 >= -186
col_slack_254: - 186 col_254 - row_44 + sumCol_254 >= -186
col_slack_256: - 186 col_256 - row_44 + sumCol_256 >= -186
col_slack_257: - 186 col_257 - row_44 + sumCol_257 >= -186
col_slack_258: - 186 col_258 - row_44 + sumCol_258 >= -186
col_slack_26: - 186 col_26 - row_44 + sumCol_26 >= -186
col_slack_260: - 186 col_260 - row_44 + sumCol_260 >= -186
col_slack_261: - 186 col_261 - row_44 + sumCol_261 >= -186
col_slack_262: - 186 col_262 - row_44 + sumCol_262 >= -186
col_slack_265: - 186 col_265 - row_44 + sumCol_265 >= -186
col_slack_267: - 186 col_267 - row_44 + sumCol_267 >= -186
col_slack_27: - 186 col_27 - row_44 + sumCol_27 >= -186
col_slack_271: - 186 col_271 - row_44 + sumCol_271 >= -186
col_slack_274: - 186 col_274 - row_44 + sumCol_274 >= -186
col_slack_275: - 186 col_275 - row_44 + sumCol_275 >= -186
col_slack_276: - 186 col_276 - row_44 + sumCol_276 >= -186
col_slack_278: - 186 col_278 - row_44 + sumCol_278 >= -186
col_slack_281: - 186 col_281 - row_44 + sumCol_281 >= -186
col_slack_282: - 186 col_282 - row_44 + sumCol_282 >= -186
col_slack_285: - 186 col_285 - row_44 + sumCol_285 >= -186
col_slack_287: - 186 col_287 - row_44 + sumCol_287 >= -186
col_slack_29: - 186 col_29 - row_44 + sumCol_29 >= -186
col_slack_291: - 186 col_291 - row_44 + sumCol_291 >= -186
col_slack_292: - 186 col_292 - row_44 + sumCol_292 >= -186
col_slack_297: - 186 col_297 - row_44 + sumCol_297 >= -186
col_slack_298: - 186 col_298 - row_44 + sumCol_298 >= -186
col_slack_30: - 186 col_30 - row_44 + sumCol_30 >= -186
col_slack_302: - 186 col_302 - row_44 + sumCol_302 >= -186
col_slack_309: - 186 col_309 - row_44 + sumCol_309 >= -186
col_slack_31: - 186 col_31 - row_44 + sumCol_31 >= -186
col_slack_310: - 186 col_310 - row_44 + sumCol_310 >= -186
col_slack_311: - 186 col_311 - row_44 + sumCol_311 >= -186
col_slack_312: - 186 col_312 - row_44 + sumCol_312 >= -186
col_slack_313: - 186 col_313 - row_44 + sumCol_313 >= -186
col_slack_314: - 186 col_314 - row_44 + sumCol_314 >= -186
col_slack_315: - 186 col_315 - row_44 + sumCol_315 >= -186
col_slack_316: - 186 col_316 - row_44 + sumCol_316 >= -186
col_slack_32: - 186 col_32 - row_44 + sumCol_32 >= -186
col_slack_324: - 186 col_324 - row_44 + sumCol_324 >= -186
col_slack_326: - 186 col_326 - row_44 + sumCol_326 >= -186
col_slack_329: - 186 col_329 - row_44 + sumCol_329 >= -186
col_slack_330: - 186 col_330 - row_44 + sumCol_330 >= -186
col_slack_331: - 186 col_331 - row_44 + sumCol_331 >= -186
col_slack_333: - 186 col_333 - row_44 + sumCol_333 >= -186
col_slack_334: - 186 col_334 - row_44 + sumCol_334 >= -186
col_slack_34: - 186 col_34 - row_44 + sumCol_34 >= -186
col_slack_342: - 186 col_342 - row_44 + sumCol_342 >= -186
col_slack_343: - 186 col_343 - row_44 + sumCol_343 >= -186
col_slack_345: - 186 col_345 - row_44 + sumCol_345 >= -186
col_slack_346: - 186 col_346 - row_44 + sumCol_346 >= -186
col_slack_347: - 186 col_347 - row_44 + sumCol_347 >= -186
col_slack_351: - 186 col_351 - row_44 + sumCol_351 >= -186
col_slack_353: - 186 col_353 - row_44 + sumCol_353 >= -186
col_slack_36: - 186 col_36 - row_44 + sumCol_36 >= -186
col_slack_364: - 186 col_364 - row_44 + sumCol_364 >= -186
col_slack_37: - 186 col_37 - row_44 + sumCol_37 >= -186
col_slack_377: - 186 col_377 - row_44 + sumCol_377 >= -186
col_slack_38: - 186 col_38 - row_44 + sumCol_38 >= -186
col_slack_387: - 186 col_387 - row_44 + sumCol_387 >= -186
col_slack_388: - 186 col_388 - row_44 + sumCol_388 >= -186
col_slack_389: - 186 col_389 - row_44 + sumCol_389 >= -186
col_slack_39: - 186 col_39 - row_44 + sumCol_39 >= -186
col_slack_390: - 186 col_390 - row_44 + sumCol_390 >= -186
col_slack_397: - 186 col_397 - row_44 + sumCol_397 >= -186
col_slack_398: - 186 col_398 - row_44 + sumCol_398 >= -186
col_slack_399: - 186 col_399 - row_44 + sumCol_399 >= -186
col_slack_40: - 186 col_40 - row_44 + sumCol_40 >= -186
col_slack_405: - 186 col_405 - row_44 + sumCol_405 >= -186
col_slack_408: - 186 col_408 - row_44 + sumCol_408 >= -186
col_slack_411: - 186 col_411 - row_44 + sumCol_411 >= -186
col_slack_417: - 186 col_417 - row_44 + sumCol_417 >= -186
col_slack_418: - 186 col_418 - row_44 + sumCol_418 >= -186
col_slack_420: - 186 col_420 - row_44 + sumCol_420 >= -186
col_slack_425: - 186 col_425 - row_44 + sumCol_425 >= -186
col_slack_426: - 186 col_426 - row_44 + sumCol_426 >= -186
col_slack_431: - 186 col_431 - row_44 + sumCol_431 >= -186
col_slack_437: - 186 col_437 - row_44 + sumCol_437 >= -186
col_slack_441: - 186 col_441 - row_44 + sumCol_441 >= -186
col_slack_442: - 186 col_442 - row_44 + sumCol_442 >= -186
col_slack_443: - 186 col_443 - row_44 + sumCol_443 >= -186
col_slack_444: - 186 col_444 - row_44 + sumCol_444 >= -186
col_slack_445: - 186 col_445 - row_44 + sumCol_445 >= -186
col_slack_446: - 186 col_446 - row_44 + sumCol_446 >= -186
col_slack_447: - 186 col_447 - row_44 + sumCol_447 >= -186
col_slack_448: - 186 col_448 - row_44 + sumCol_448 >= -186
col_slack_449: - 186 col_449 - row_44 + sumCol_449 >= -186
col_slack_450: - 186 col_450 - row_44 + sumCol_450 >= -186
col_slack_452: - 186 col_452 - row_44 + sumCol_452 >= -186
col_slack_453: - 186 col_453 - row_44 + sumCol_453 >= -186
col_slack_454: - 186 col_454 - row_44 + sumCol_454 >= -186
col_slack_455: - 186 col_455 - row_44 + sumCol_455 >= -186
col_slack_456: - 186 col_456 - row_44 + sumCol_456 >= -186
col_slack_458: - 186 col_458 - row_44 + sumCol_458 >= -186
col_slack_460: - 186 col_460 - row_44 + sumCol_460 >= -186
col_slack_461: - 186 col_461 - row_44 + sumCol_461 >= -186
col_slack_462: - 186 col_462 - row_44 + sumCol_462 >= -186
col_slack_463: - 186 col_463 - row_44 + sumCol_463 >= -186
col_slack_464: - 186 col_464 - row_44 + sumCol_464 >= -186
col_slack_465: - 186 col_465 - row_44 + sumCol_465 >= -186
col_slack_5: - 186 col_5 - row_44 + sumCol_5 >= -186
col_slack_50: - 186 col_50 - row_44 + sumCol_50 >= -186
col_slack_51: - 186 col_51 - row_44 + sumCol_51 >= -186
col_slack_53: - 186 col_53 - row_44 + sumCol_53 >= -186
col_slack_55: - 186 col_55 - row_44 + sumCol_55 >= -186
col_slack_56: - 186 col_56 - row_44 + sumCol_56 >= -186
col_slack_59: - 186 col_59 - row_44 + sumCol_59 >= -186
col_slack_62: - 186 col_62 - row_44 + sumCol_62 >= -186
col_slack_63: - 186 col_63 - row_44 + sumCol_63 >= -186
col_slack_66: - 186 col_66 - row_44 + sumCol_66 >= -186
col_slack_68: - 186 col_68 - row_44 + sumCol_68 >= -186
col_slack_70: - 186 col_70 - row_44 + sumCol_70 >= -186
col_slack_74: - 186 col_74 - row_44 + sumCol_74 >= -186
col_slack_79: - 186 col_79 - row_44 + sumCol_79 >= -186
col_slack_80: - 186 col_80 - row_44 + sumCol_80 >= -186
col_slack_82: - 186 col_82 - row_44 + sumCol_82 >= -186
col_slack_9: - 186 col_9 - row_44 + sumCol_9 >= -186
col_slack_91: - 186 col_91 - row_44 + sumCol_91 >= -186
col_slack_93: - 186 col_93 - row_44 + sumCol_93 >= -186
col_slack_95: - 186 col_95 - row_44 + sumCol_95 >= -186
col_sum_1: - row_44 + sumCol_1 = 0
col_sum_10: - row_44 + sumCol_10 = 0
col_sum_100: - row_44 + sumCol_100 = 0
col_sum_107: - row_44 + sumCol_107 = 0
col_sum_11: - row_44 + sumCol_11 = 0
col_sum_116: - row_44 + sumCol_116 = 0
col_sum_118: - row_44 + sumCol_118 = 0
col_sum_12: - row_44 + sumCol_12 = 0
col_sum_121: - row_44 + sumCol_121 = 0
col_sum_123: - row_44 + sumCol_123 = 0
col_sum_124: - row_44 + sumCol_124 = 0
col_sum_128: - row_44 + sumCol_128 = 0
col_sum_13: - row_44 + sumCol_13 = 0
col_sum_131: - row_44 + sumCol_131 = 0
col_sum_133: - row_44 + sumCol_133 = 0
col_sum_136: - row_44 + sumCol_136 = 0
col_sum_139: - row_44 + sumCol_139 = 0
col_sum_14: - row_44 + sumCol_14 = 0
col_sum_141: - row_44 + sumCol_141 = 0
col_sum_144: - row_44 + sumCol_144 = 0
col_sum_146: - row_44 + sumCol_146 = 0
col_sum_148: - row_44 + sumCol_148 = 0
col_sum_149: - row_44 + sumCol_149 = 0
col_sum_15: - row_44 + sumCol_15 = 0
col_sum_155: - row_44 + sumCol_155 = 0
col_sum_158: - row_44 + sumCol_158 = 0
col_sum_16: - row_44 + sumCol_16 = 0
col_sum_160: - row_44 + sumCol_160 = 0
col_sum_163: - row_44 + sumCol_163 = 0
col_sum_164: - row_44 + sumCol_164 = 0
col_sum_165: - row_44 + sumCol_165 = 0
col_sum_166: - row_44 + sumCol_166 = 0
col_sum_168: - row_44 + sumCol_168 = 0
col_sum_173: - row_44 + sumCol_173 = 0
col_sum_178: - row_44 + sumCol_178 = 0
col_sum_18: - row_44 + sumCol_18 = 0
col_sum_180: - row_44 + sumCol_180 = 0
col_sum_181: - row_44 + sumCol_181 = 0
col_sum_183: - row_44 + sumCol_183 = 0
col_sum_184: - row_44 + sumCol_184 = 0
col_sum_185: - row_44 + sumCol_185 = 0
col_sum_187: - row_44 + sumCol_187 = 0
col_sum_188: - row_44 + sumCol_188 = 0
col_sum_19: - row_44 + sumCol_19 = 0
col_sum_190: - row_44 + sumCol_190 = 0
col_sum_194: - row_44 + sumCol_194 = 0
col_sum_196: - row_44 + sumCol_196 = 0
col_sum_199: - row_44 + sumCol_199 = 0
col_sum_203: - row_44 + sumCol_203 = 0
col_sum_205: - row_44 + sumCol_205 = 0
col_sum_208: - row_44 + sumCol_208 = 0
col_sum_21: - row_44 + sumCol_21 = 0
col_sum_216: - row_44 + sumCol_216 = 0
col_sum_219: - row_44 + sumCol_219 = 0
col_sum_221: - row_44 + sumCol_221 = 0
col_sum_223: - row_44 + sumCol_223 = 0
col_sum_225: - row_44 + sumCol_225 = 0
col_sum_23: - row_44 + sumCol_23 = 0
col_sum_239: - row_44 + sumCol_239 = 0
col_sum_24: - row_44 + sumCol_24 = 0
col_sum_241: - row_44 + sumCol_241 = 0
col_sum_245: - row_44 + sumCol_245 = 0
col_sum_246: - row_44 + sumCol_246 = 0
col_sum_25: - row_44 + sumCol_25 = 0
col_sum_253: - row_44 + sumCol_253 = 0
col_sum_254: - row_44 + sumCol_254 = 0
col_sum_256: - row_44 + sumCol_256 = 0
col_sum_257: - row_44 + sumCol_257 = 0
col_sum_258: - row_44 + sumCol_258 = 0
col_sum_26: - row_44 + sumCol_26 = 0
col_sum_260: - row_44 + sumCol_260 = 0
col_sum_261: - row_44 + sumCol_261 = 0
col_sum_262: - row_44 + sumCol_262 = 0
col_sum_265: - row_44 + sumCol_265 = 0
col_sum_267: - row_44 + sumCol_267 = 0
col_sum_27: - row_44 + sumCol_27 = 0
col_sum_271: - row_44 + sumCol_271 = 0
col_sum_274: - row_44 + sumCol_274 = 0
col_sum_275: - row_44 + sumCol_275 = 0
col_sum_276: - row_44 + sumCol_276 = 0
col_sum_278: - row_44 + sumCol_278 = 0
col_sum_281: - row_44 + sumCol_281 = 0
col_sum_282: - row_44 + sumCol_282 = 0
col_sum_285: - row_44 + sumCol_285 = 0
col_sum_287: - row_44 + sumCol_287 = 0
col_sum_29: - row_44 + sumCol_29 = 0
col_sum_291: - row_44 + sumCol_291 = 0
col_sum_292: - row_44 + sumCol_292 = 0
col_sum_297: - row_44 + sumCol_297 = 0
col_sum_298: - row_44 + sumCol_298 = 0
col_sum_30: - row_44 + sumCol_30 = 0
col_sum_302: - row_44 + sumCol_302 = 0
col_sum_309: - row_44 + sumCol_309 = 0
col_sum_31: - row_44 + sumCol_31 = 0
col_sum_310: - row_44 + sumCol_310 = 0
col_sum_311: - row_44 + sumCol_311 = 0
col_sum_312: - row_44 + sumCol_312 = 0
col_sum_313: - row_44 + sumCol_313 = 0
col_sum_314: - row_44 + sumCol_314 = 0
col_sum_315: - row_44 + sumCol_315 = 0
col_sum_316: - row_44 + sumCol_316 = 0
col_sum_32: - row_44 + sumCol_32 = 0
col_sum_324: - row_44 + sumCol_324 = 0
col_sum_326: - row_44 + sumCol_326 = 0
col_sum_329: - row_44 + sumCol_329 = 0
col_sum_330: - row_44 + sumCol_330 = 0
col_sum_331: - row_44 + sumCol_331 = 0
col_sum_333: - row_44 + sumCol_333 = 0
col_sum_334: - row_44 + sumCol_334 = 0
col_sum_34: - row_44 + sumCol_34 = 0
col_sum_342: - row_44 + sumCol_342 = 0
col_sum_343: - row_44 + sumCol_343 = 0
col_sum_345: - row_44 + sumCol_345 = 0
col_sum_346: - row_44 + sumCol_346 = 0
col_sum_347: - row_44 + sumCol_347 = 0
col_sum_351: - row_44 + sumCol_351 = 0
col_sum_353: - row_44 + sumCol_353 = 0
col_sum_36: - row_44 + sumCol_36 = 0
col_sum_364: - row_44 + sumCol_364 = 0
col_sum_37: - row_44 + sumCol_37 = 0
col_sum_377: - row_44 + sumCol_377 = 0
col_sum_38: - row_44 + sumCol_38 = 0
col_sum_387: - row_44 + sumCol_387 = 0
col_sum_388: - row_44 + sumCol_388 = 0
col_sum_389: - row_44 + sumCol_389 = 0
col_sum_39: - row_44 + sumCol_39 = 0
col_sum_390: - row_44 + sumCol_390 = 0
col_sum_397: - row_44 + sumCol_397 = 0
col_sum_398: - row_44 + sumCol_398 = 0
col_sum_399: - row_44 + sumCol_399 = 0
col_sum_40: - row_44 + sumCol_40 = 0
col_sum_405: - row_44 + sumCol_405 = 0
col_sum_408: - row_44 + sumCol_408 = 0
col_sum_411: - row_44 + sumCol_411 = 0
col_sum_417: - row_44 + sumCol_417 = 0
col_sum_418: - row_44 + sumCol_418 = 0
col_sum_420: - row_44 + sumCol_420 = 0
col_sum_425: - row_44 + sumCol_425 = 0
col_sum_426: - row_44 + sumCol_426 = 0
col_sum_431: - row_44 + sumCol_431 = 0
col_sum_437: - row_44 + sumCol_437 = 0
col_sum_441: - row_44 + sumCol_441 = 0
col_sum_442: - row_44 + sumCol_442 = 0
col_sum_443: - row_44 + sumCol_443 = 0
col_sum_444: - row_44 + sumCol_444 = 0
col_sum_445: - row_44 + sumCol_445 = 0
col_sum_446: - row_44 + sumCol_446 = 0
col_sum_447: - row_44 + sumCol_447 = 0
col_sum_448: - row_44 + sumCol_448 = 0
col_sum_449: - row_44 + sumCol_449 = 0
col_sum_450: - row_44 + sumCol_450 = 0
col_sum_452: - row_44 + sumCol_452 = 0
col_sum_453: - row_44 + sumCol_453 = 0
col_sum_454: - row_44 + sumCol_454 = 0
col_sum_455: - row_44 + sumCol_455 = 0
col_sum_456: - row_44 + sumCol_456 = 0
col_sum_458: - row_44 + sumCol_458 = 0
col_sum_460: - row_44 + sumCol_460 = 0
col_sum_461: - row_44 + sumCol_461 = 0
col_sum_462: - row_44 + sumCol_462 = 0
col_sum_463: - row_44 + sumCol_463 = 0
col_sum_464: - row_44 + sumCol_464 = 0
col_sum_465: - row_44 + sumCol_465 = 0
col_sum_5: - row_44 + sumCol_5 = 0
col_sum_50: - row_44 + sumCol_50 = 0
col_sum_51: - row_44 + sumCol_51 = 0
col_sum_53: - row_44 + sumCol_53 = 0
col_sum_55: - row_44 + sumCol_55 = 0
col_sum_56: - row_44 + sumCol_56 = 0
col_sum_59: - row_44 + sumCol_59 = 0
col_sum_62: - row_44 + sumCol_62 = 0
col_sum_63: - row_44 + sumCol_63 = 0
col_sum_66: - row_44 + sumCol_66 = 0
col_sum_68: - row_44 + sumCol_68 = 0
col_sum_70: - row_44 + sumCol_70 = 0
col_sum_74: - row_44 + sumCol_74 = 0
col_sum_79: - row_44 + sumCol_79 = 0
col_sum_80: - row_44 + sumCol_80 = 0
col_sum_82: - row_44 + sumCol_82 = 0
col_sum_9: - row_44 + sumCol_9 = 0
col_sum_91: - row_44 + sumCol_91 = 0
col_sum_93: - row_44 + sumCol_93 = 0
col_sum_95: - row_44 + sumCol_95 = 0
col_threshold: col_1 + col_10 + col_100 + col_107 + col_11 + col_116 + col_118
 + col_12 + col_121 + col_123 + col_124 + col_128 + col_13 + col_131 + col_133
 + col_136 + col_139 + col_14 + col_141 + col_144 + col_146 + col_148
 + col_149 + col_15 + col_155 + col_158 + col_16 + col_160 + col_163 + col_164
 + col_165 + col_166 + col_168 + col_173 + col_178 + col_18 + col_180
 + col_181 + col_183 + col_184 + col_185 + col_187 + col_188 + col_19
 + col_190 + col_194 + col_196 + col_199 + col_203 + col_205 + col_208
 + col_21 + col_216 + col_219 + col_221 + col_223 + col_225 + col_23 + col_239
 + col_24 + col_241 + col_245 + col_246 + col_25 + col_253 + col_254 + col_256
 + col_257 + col_258 + col_26 + col_260 + col_261 + col_262 + col_265
 + col_267 + col_27 + col_271 + col_274 + col_275 + col_276 + col_278
 + col_281 + col_282 + col_285 + col_287 + col_29 + col_291 + col_292
 + col_297 + col_298 + col_30 + col_302 + col_309 + col_31 + col_310 + col_311
 + col_312 + col_313 + col_314 + col_315 + col_316 + col_32 + col_324
 + col_326 + col_329 + col_330 + col_331 + col_333 + col_334 + col_34
 + col_342 + col_343 + col_345 + col_346 + col_347 + col_351 + col_353
 + col_36 + col_364 + col_37 + col_377 + col_38 + col_387 + col_388 + col_389
 + col_39 + col_390 + col_397 + col_398 + col_399 + col_40 + col_405 + col_408
 + col_411 + col_417 + col_418 + col_420 + col_425 + col_426 + col_431
 + col_437 + col_441 + col_442 + col_443 + col_444 + col_445 + col_446
 + col_447 + col_448 + col_449 + col_450 + col_452 + col_453 + col_454
 + col_455 + col_456 + col_458 + col_460 + col_461 + col_462 + col_463
 + col_464 + col_465 + col_5 + col_50 + col_51 + col_53 + col_55 + col_56
 + col_59 + col_62 + col_63 + col_66 + col_68 + col_70 + col_74 + col_79
 + col_80 + col_82 + col_9 + col_91 + col_93 + col_95 >= 2
row_slack_44: - col_1 - col_10 - col_100 - col_107 - col_11 - col_116
 - col_118 - col_12 - col_121 - col_123 - col_124 - col_128 - col_13 - col_131
 - col_133 - col_136 - col_139 - col_14 - col_141 - col_144 - col_146
 - col_148 - col_149 - col_15 - col_155 - col_158 - col_16 - col_160 - col_163
 - col_164 - col_165 - col_166 - col_168 - col_173 - col_178 - col_18
 - col_180 - col_181 - col_183 - col_184 - col_185 - col_187 - col_188
 - col_19 - col_190 - col_194 - col_196 - col_199 - col_203 - col_205
 - col_208 - col_21 - col_216 - col_219 - col_221 - col_223 - col_225 - col_23
 - col_239 - col_24 - col_241 - col_245 - col_246 - col_25 - col_253 - col_254
 - col_256 - col_257 - col_258 - col_26 - col_260 - col_261 - col_262
 - col_265 - col_267 - col_27 - col_271 - col_274 - col_275 - col_276
 - col_278 - col_281 - col_282 - col_285 - col_287 - col_29 - col_291
 - col_292 - col_297 - col_298 - col_30 - col_302 - col_309 - col_31 - col_310
 - col_311 - col_312 - col_313 - col_314 - col_315 - col_316 - col_32
 - col_324 - col_326 - col_329 - col_330 - col_331 - col_333 - col_334
 - col_34 - col_342 - col_343 - col_345 - col_346 - col_347 - col_351
 - col_353 - col_36 - col_364 - col_37 - col_377 - col_38 - col_387 - col_388
 - col_389 - col_39 - col_390 - col_397 - col_398 - col_399 - col_40 - col_405
 - col_408 - col_411 - col_417 - col_418 - col_420 - col_425 - col_426
 - col_431 - col_437 - col_441 - col_442 - col_443 - col_444 - col_445
 - col_446 - col_447 - col_448 - col_449 - col_450 - col_452 - col_453
 - col_454 - col_455 - col_456 - col_458 - col_460 - col_461 - col_462
 - col_463 - col_464 - col_465 - col_5 - col_50 - col_51 - col_53 - col_55
 - col_56 - col_59 - col_62 - col_63 - col_66 - col_68 - col_70 - col_74
 - col_79 - col_80 - col_82 - col_9 - col_91 - col_93 - col_95 - 186 row_44
 + sumRow_44 >= -186
row_sum_44: - col_1 - col_10 - col_100 - col_107 - col_11 - col_116 - col_118
 - col_12 - col_121 - col_123 - col_124 - col_128 - col_13 - col_131 - col_133
 - col_136 - col_139 - col_14 - col_141 - col_144 - col_146 - col_148
 - col_149 - col_15 - col_155 - col_158 - col_16 - col_160 - col_163 - col_164
 - col_165 - col_166 - col_168 - col_173 - col_178 - col_18 - col_180
 - col_181 - col_183 - col_184 - col_185 - col_187 - col_188 - col_19
 - col_190 - col_194 - col_196 - col_199 - col_203 - col_205 - col_208
 - col_21 - col_216 - col_219 - col_221 - col_223 - col_225 - col_23 - col_239
 - col_24 - col_241 - col_245 - col_246 - col_25 - col_253 - col_254 - col_256
 - col_257 - col_258 - col_26 - col_260 - col_261 - col_262 - col_265
 - col_267 - col_27 - col_271 - col_274 - col_275 - col_276 - col_278
 - col_281 - col_282 - col_285 - col_287 - col_29 - col_291 - col_292
 - col_297 - col_298 - col_30 - col_302 - col_309 - col_31 - col_310 - col_311
 - col_312 - col_313 - col_314 - col_315 - col_316 - col_32 - col_324
 - col_326 - col_329 - col_330 - col_331 - col_333 - col_334 - col_34
 - col_342 - col_343 - col_345 - col_346 - col_347 - col_351 - col_353
 - col_36 - col_364 - col_37 - col_377 - col_38 - col_387 - col_388 - col_389
 - col_39 - col_390 - col_397 - col_398 - col_399 - col_40 - col_405 - col_408
 - col_411 - col_417 - col_418 - col_420 - col_425 - col_426 - col_431
 - col_437 - col_441 - col_442 - col_443 - col_444 - col_445 - col_446
 - col_447 - col_448 - col_449 - col_450 - col_452 - col_453 - col_454
 - col_455 - col_456 - col_458 - col_460 - col_461 - col_462 - col_463
 - col_464 - col_465 - col_5 - col_50 - col_51 - col_53 - col_55 - col_56
 - col_59 - col_62 - col_63 - col_66 - col_68 - col_70 - col_74 - col_79
 - col_80 - col_82 - col_9 - col_91 - col_93 - col_95 + sumRow_44 = 0
row_threshold: row_44 >= 2
Bounds
 0 <= sumCol_1 <= 2
 0 <= sumCol_10 <= 2
 0 <= sumCol_100 <= 2
 0 <= sumCol_107 <= 2
 0 <= sumCol_11 <= 2
 0 <= sumCol_116 <= 2
 0 <= sumCol_118 <= 2
 0 <= sumCol_12 <= 2
 0 <= sumCol_121 <= 2
 0 <= sumCol_123 <= 2
 0 <= sumCol_124 <= 2
 0 <= sumCol_128 <= 2
 0 <= sumCol_13 <= 2
 0 <= sumCol_131 <= 2
 0 <= sumCol_133 <= 2
 0 <= sumCol_136 <= 2
 0 <= sumCol_139 <= 2
 0 <= sumCol_14 <= 2
 0 <= sumCol_141 <= 2
 0 <= sumCol_144 <= 2
 0 <= sumCol_146 <= 2
 0 <= sumCol_148 <= 2
 0 <= sumCol_149 <= 2
 0 <= sumCol_15 <= 2
 0 <= sumCol_155 <= 2
 0 <= sumCol_158 <= 2
 0 <= sumCol_16 <= 2
 0 <= sumCol_160 <= 2
 0 <= sumCol_163 <= 2
 0 <= sumCol_164 <= 2
 0 <= sumCol_165 <= 2
 0 <= sumCol_166 <= 2
 0 <= sumCol_168 <= 2
 0 <= sumCol_173 <= 2
 0 <= sumCol_178 <= 2
 0 <= sumCol_18 <= 2
 0 <= sumCol_180 <= 2
 0 <= sumCol_181 <= 2
 0 <= sumCol_183 <= 2
 0 <= sumCol_184 <= 2
 0 <= sumCol_185 <= 2
 0 <= sumCol_187 <= 2
 0 <= sumCol_188 <= 2
 0 <= sumCol_19 <= 2
 0 <= sumCol_190 <= 2
 0 <= sumCol_194 <= 2
 0 <= sumCol_196 <= 2
 0 <= sumCol_199 <= 2
 0 <= sumCol_203 <= 2
 0 <= sumCol_205 <= 2
 0 <= sumCol_208 <= 2
 0 <= sumCol_21 <= 2
 0 <= sumCol_216 <= 2
 0 <= sumCol_219 <= 2
 0 <= sumCol_221 <= 2
 0 <= sumCol_223 <= 2
 0 <= sumCol_225 <= 2
 0 <= sumCol_23 <= 2
 0 <= sumCol_239 <= 2
 0 <= sumCol_24 <= 2
 0 <= sumCol_241 <= 2
 0 <= sumCol_245 <= 2
 0 <= sumCol_246 <= 2
 0 <= sumCol_25 <= 2
 0 <= sumCol_253 <= 2
 0 <= sumCol_254 <= 2
 0 <= sumCol_256 <= 2
 0 <= sumCol_257 <= 2
 0 <= sumCol_258 <= 2
 0 <= sumCol_26 <= 2
 0 <= sumCol_260 <= 2
 0 <= sumCol_261 <= 2
 0 <= sumCol_262 <= 2
 0 <= sumCol_265 <= 2
 0 <= sumCol_267 <= 2
 0 <= sumCol_27 <= 2
 0 <= sumCol_271 <= 2
 0 <= sumCol_274 <= 2
 0 <= sumCol_275 <= 2
 0 <= sumCol_276 <= 2
 0 <= sumCol_278 <= 2
 0 <= sumCol_281 <= 2
 0 <= sumCol_282 <= 2
 0 <= sumCol_285 <= 2
 0 <= sumCol_287 <= 2
 0 <= sumCol_29 <= 2
 0 <= sumCol_291 <= 2
 0 <= sumCol_292 <= 2
 0 <= sumCol_297 <= 2
 0 <= sumCol_298 <= 2
 0 <= sumCol_30 <= 2
 0 <= sumCol_302 <= 2
 0 <= sumCol_309 <= 2
 0 <= sumCol_31 <= 2
 0 <= sumCol_310 <= 2
 0 <= sumCol_311 <= 2
 0 <= sumCol_312 <= 2
 0 <= sumCol_313 <= 2
 0 <= sumCol_314 <= 2
 0 <= sumCol_315 <= 2
 0 <= sumCol_316 <= 2
 0 <= sumCol_32 <= 2
 0 <= sumCol_324 <= 2
 0 <= sumCol_326 <= 2
 0 <= sumCol_329 <= 2
 0 <= sumCol_330 <= 2
 0 <= sumCol_331 <= 2
 0 <= sumCol_333 <= 2
 0 <= sumCol_334 <= 2
 0 <= sumCol_34 <= 2
 0 <= sumCol_342 <= 2
 0 <= sumCol_343 <= 2
 0 <= sumCol_345 <= 2
 0 <= sumCol_346 <= 2
 0 <= sumCol_347 <= 2
 0 <= sumCol_351 <= 2
 0 <= sumCol_353 <= 2
 0 <= sumCol_36 <= 2
 0 <= sumCol_364 <= 2
 0 <= sumCol_37 <= 2
 0 <= sumCol_377 <= 2
 0 <= sumCol_38 <= 2
 0 <= sumCol_387 <= 2
 0 <= sumCol_388 <= 2
 0 <= sumCol_389 <= 2
 0 <= sumCol_39 <= 2
 0 <= sumCol_390 <= 2
 0 <= sumCol_397 <= 2
 0 <= sumCol_398 <= 2
 0 <= sumCol_399 <= 2
 0 <= sumCol_40 <= 2
 0 <= sumCol_405 <= 2
 0 <= sumCol_408 <= 2
 0 <= sumCol_411 <= 2
 0 <= sumCol_417 <= 2
 0 <= sumCol_418 <= 2
 0 <= sumCol_420 <= 2
 0 <= sumCol_425 <= 2
 0 <= sumCol_426 <= 2
 0 <= sumCol_431 <= 2
 0 <= sumCol_437 <= 2
 0 <= sumCol_441 <= 2
 0 <= sumCol_442 <= 2
 0 <= sumCol_443 <= 2
 0 <= sumCol_444 <= 2
 0 <= sumCol_445 <= 2
 0 <= sumCol_446 <= 2
 0 <= sumCol_447 <= 2
 0 <= sumCol_448 <= 2
 0 <= sumCol_449 <= 2
 0 <= sumCol_450 <= 2
 0 <= sumCol_452 <= 2
 0 <= sumCol_453 <= 2
 0 <= sumCol_454 <= 2
 0 <= sumCol_455 <= 2
 0 <= sumCol_456 <= 2
 0 <= sumCol_458 <= 2
 0 <= sumCol_460 <= 2
 0 <= sumCol_461 <= 2
 0 <= sumCol_462 <= 2
 0 <= sumCol_463 <= 2
 0 <= sumCol_464 <= 2
 0 <= sumCol_465 <= 2
 0 <= sumCol_5 <= 2
 0 <= sumCol_50 <= 2
 0 <= sumCol_51 <= 2
 0 <= sumCol_53 <= 2
 0 <= sumCol_55 <= 2
 0 <= sumCol_56 <= 2
 0 <= sumCol_59 <= 2
 0 <= sumCol_62 <= 2
 0 <= sumCol_63 <= 2
 0 <= sumCol_66 <= 2
 0 <= sumCol_68 <= 2
 0 <= sumCol_70 <= 2
 0 <= sumCol_74 <= 2
 0 <= sumCol_79 <= 2
 0 <= sumCol_80 <= 2
 0 <= sumCol_82 <= 2
 0 <= sumCol_9 <= 2
 0 <= sumCol_91 <= 2
 0 <= sumCol_93 <= 2
 0 <= sumCol_95 <= 2
 0 <= sumRow_44 <= 184
Generals
sumCol_1
sumCol_10
sumCol_100
sumCol_107
sumCol_11
sumCol_116
sumCol_118
sumCol_12
sumCol_121
sumCol_123
sumCol_124
sumCol_128
sumCol_13
sumCol_131
sumCol_133
sumCol_136
sumCol_139
sumCol_14
sumCol_141
sumCol_144
sumCol_146
sumCol_148
sumCol_149
sumCol_15
sumCol_155
sumCol_158
sumCol_16
sumCol_160
sumCol_163
sumCol_164
sumCol_165
sumCol_166
sumCol_168
sumCol_173
sumCol_178
sumCol_18
sumCol_180
sumCol_181
sumCol_183
sumCol_184
sumCol_185
sumCol_187
sumCol_188
sumCol_19
sumCol_190
sumCol_194
sumCol_196
sumCol_199
sumCol_203
sumCol_205
sumCol_208
sumCol_21
sumCol_216
sumCol_219
sumCol_221
sumCol_223
sumCol_225
sumCol_23
sumCol_239
sumCol_24
sumCol_241
sumCol_245
sumCol_246
sumCol_25
sumCol_253
sumCol_254
sumCol_256
sumCol_257
sumCol_258
sumCol_26
sumCol_260
sumCol_261
sumCol_262
sumCol_265
sumCol_267
sumCol_27
sumCol_271
sumCol_274
sumCol_275
sumCol_276
sumCol_278
sumCol_281
sumCol_282
sumCol_285
sumCol_287
sumCol_29
sumCol_291
sumCol_292
sumCol_297
sumCol_298
sumCol_30
sumCol_302
sumCol_309
sumCol_31
sumCol_310
sumCol_311
sumCol_312
sumCol_313
sumCol_314
sumCol_315
sumCol_316
sumCol_32
sumCol_324
sumCol_326
sumCol_329
sumCol_330
sumCol_331
sumCol_333
sumCol_334
sumCol_34
sumCol_342
sumCol_343
sumCol_345
sumCol_346
sumCol_347
sumCol_351
sumCol_353
sumCol_36
sumCol_364
sumCol_37
sumCol_377
sumCol_38
sumCol_387
sumCol_388
sumCol_389
sumCol_39
sumCol_390
sumCol_397
sumCol_398
sumCol_399
sumCol_40
sumCol_405
sumCol_408
sumCol_411
sumCol_417
sumCol_418
sumCol_420
sumCol_425
sumCol_426
sumCol_431
sumCol_437
sumCol_441
sumCol_442
sumCol_443
sumCol_444
sumCol_445
sumCol_446
sumCol_447
sumCol_448
sumCol_449
sumCol_450
sumCol_452
sumCol_453
sumCol_454
sumCol_455
sumCol_456
sumCol_458
sumCol_460
sumCol_461
sumCol_462
sumCol_463
sumCol_464
sumCol_465
sumCol_5
sumCol_50
sumCol_51
sumCol_53
sumCol_55
sumCol_56
sumCol_59
sumCol_62
sumCol_63
sumCol_66
sumCol_68
sumCol_70
sumCol_74
sumCol_79
sumCol_80
sumCol_82
sumCol_9
sumCol_91
sumCol_93
sumCol_95
sumRow_44
Binaries
col_1
col_10
col_100
col_107
col_11
col_116
col_118
col_12
col_121
col_123
col_124
col_128
col_13
col_131
col_133
col_136
col_139
col_14
col_141
col_144
col_146
col_148
col_149
col_15
col_155
col_158
col_16
col_160
col_163
col_164
col_165
col_166
col_168
col_173
col_178
col_18
col_180
col_181
col_183
col_184
col_185
col_187
col_188
col_19
col_190
col_194
col_196
col_199
col_203
col_205
col_208
col_21
col_216
col_219
col_221
col_223
col_225
col_23
col_239
col_24
col_241
col_245
col_246
col_25
col_253
col_254
col_256
col_257
col_258
col_26
col_260
col_261
col_262
col_265
col_267
col_27
col_271
col_274
col_275
col_276
col_278
col_281
col_282
col_285
col_287
col_29
col_291
col_292
col_297
col_298
col_30
col_302
col_309
col_31
col_310
col_311
col_312
col_313
col_314
col_315
col_316
col_32
col_324
col_326
col_329
col_330
col_331
col_333
col_334
col_34
col_342
col_343
col_345
col_346
col_347
col_351
col_353
col_36
col_364
col_37
col_377
col_38
col_387
col_388
col_389
col_39
col_390
col_397
col_398
col_399
col_40
col_405
col_408
col_411
col_417
col_418
col_420
col_425
col_426
col_431
col_437
col_441
col_442
col_443
col_444
col_445
col_446
col_447
col_448
col_449
col_450
col_452
col_453
col_454
col_455
col_456
col_458
col_460
col_461
col_462
col_463
col_464
col_465
col_5
col_50
col_51
col_53
col_55
col_56
col_59
col_62
col_63
col_66
col_68
col_70
col_74
col_79
col_80
col_82
col_9
col_91
col_93
col_95
row_44
End
